20
587 233 220
87 45 32
84 63 46
84 67 44
76 55 30
87 78 61
115 77 53
78 72 51
93 91 62
48 41 40
92 82 53
102 69 54
80 52 34
90 71 60
66 43 42
73 58 52
66 66 26
91 40 28
72 34 33
120 98 74
68 56 43
thpack7_66